57768133979594305135010,11,1,2,015,13,1,2,06,14,1,2,013,9,1,2,07,11,1,2,01,9,1,2,08,4,1,2,05,11,1,2,05,2,1,2,08,11,1,2,04,2,1,2,010,6,1,2,07,10,1,2,010,10,1,2,01,3,1,2,06,2,1,2,013,12,1,2,012,2,1,2,02,14,1,2,010,3,1,2,03,15,1,2,011,5,1,2,08,14,1,2,07,6,1,2,010,5,1,2,015,9,1,2,09,1,1,2,08,9,1,2,010,3,1,2,011,8,1,2,012,7,1,2,015,3,1,2,014,13,1,2,013,8,1,2,012,15,1,2,05,10,1,2,010,8,1,2,01,8,1,2,05,4,1,2,07,2,1,2,011,4,1,2,014,1,1,2,014,10,1,2,011,11,1,2,014,12,1,2,014,2,1,2,04,9,1,2,011,13,1,2,013,8,1,2,010,11,1,2,0